param set_len = 28;
param target_sum = 6966435976;
param values := [1] 97287867 [2] 402491279 [3] 669090907 [4] 191574600 [5] 891832087 [6] 597785706 [7] 194654487 [8] 68827412 [9] 740569276 [10] 58936421 [11] 517789601 [12] 22645492 [13] 926640778 [14] 332832904 [15] 23574358 [16] 730572678 [17] 484333387 [18] 492676786 [19] 988790734 [20] 310236169 [21] 690000635 [22] 691800252 [23] 672055094 [24] 94733813 [25] 939619036 [26] 672993779 [27] 946621532 [28] 650110866 ;
